Sat 19 May 19:22:30 CEST 2018
CPXPARAM_TimeLimit                               45
CPXPARAM_Threads                                 1
CPXPARAM_MIP_Strategy_CallbackReducedLP          0
Tried aggregator 7 times.
MIP Presolve eliminated 4966 rows and 3637 columns.
MIP Presolve modified 2716 coefficients.
Aggregator did 4984 substitutions.
Reduced MIP has 9680 rows, 9372 columns, and 24724 nonzeros.
Reduced MIP has 8348 binaries, 12 generals, 0 SOSs, and 1862 indicators.
Presolve time = 0.10 sec. (176.85 ticks)
Probing time = 0.16 sec. (116.95 ticks)
Tried aggregator 6 times.
Aggregator did 4556 substitutions.
Reduced MIP has 5124 rows, 4816 columns, and 15612 nonzeros.
Reduced MIP has 3792 binaries, 1024 generals, 0 SOSs, and 1862 indicators.
Presolve time = 0.04 sec. (54.72 ticks)
Probing time = 0.13 sec. (101.38 ticks)
Tried aggregator 1 time.
Reduced MIP has 5124 rows, 4816 columns, and 15612 nonzeros.
Reduced MIP has 3792 binaries, 1024 generals, 0 SOSs, and 1862 indicators.
Presolve time = 0.01 sec. (14.70 ticks)
Probing time = 0.01 sec. (5.38 ticks)
Clique table members: 156617.
MIP emphasis: balance optimality and feasibility.
MIP search method: dynamic search.
Parallel mode: none, using 1 thread.
Root relaxation solution time = 0.01 sec. (19.30 ticks)

        Nodes                                         Cuts/
   Node  Left     Objective  IInf  Best Integer    Best Bound    ItCnt     Gap

      0     0        0.0000  2021                      0.0000      264         
      0     0        0.0000  1769               Cliques: 1381      567         
      0     0        0.0000  1795               Cliques: 1381      851         
      0     0        0.0000  1822               Cliques: 1381     1119         
      0     2        0.0000  1822                      0.0000     1119         
Elapsed time = 8.60 sec. (10172.76 ticks, tree = 0.01 MB, solutions = 0)
     60    62        0.0000  1532                      0.0000     1365         
     92    94        0.0000  1377                      0.0000     1507         
    117   118        1.0000  1134                      1.0000     2901         
    142   143        3.0000  1011                      1.0000     3226         
    150   150        2.0000  1035                      1.0000     4113         
    165   164        2.2222  1042                      1.0000     5289         
    168   166        2.0000  1001                      1.0000     6240         
    171   169       18.0000   933                      1.0000     6886         
    173   171        4.0000   952                      1.0000     7186         
    264   253        4.0000   824                      1.0000    10076         
Elapsed time = 11.77 sec. (13563.24 ticks, tree = 8.56 MB, solutions = 0)
*   340+  319                           20.0000        1.0000            95.00%
    440   389        4.0000   890       20.0000        4.0000    10783   80.00%
    484   433        4.0000  1019       20.0000        4.0000    14162   80.00%
    507   426       19.0000    22       20.0000        4.0000    17598   80.00%
*   523   264      integral     0       19.0000        4.0000    18133   78.95%
    524   238        4.0000   114       19.0000        4.0000    18161   78.95%
*   561   171      integral     0       10.0000        4.0000    19238   60.00%
*   582   127      integral     0        9.0000        4.0000    19688   55.56%
*   604+  108                            8.0000        4.0000            50.00%
*   604+   57                            6.0000        4.0000            33.33%
*   644+   10                            5.0000        4.0000            20.00%
    648     7        4.0000    79        5.0000        4.0000    23494   20.00%
    669     6        4.0000   122        5.0000        4.0000    27211   20.00%
    713    10        cutoff              5.0000        4.0000    30735   20.00%
    764     5        4.0000   577        5.0000        4.0000    36381   20.00%
    814    33    infeasible              5.0000        4.0000    42654   20.00%
   1198     9        4.0000   152        5.0000        4.0000    45629   20.00%
Elapsed time = 25.86 sec. (33720.30 ticks, tree = 0.03 MB, solutions = 7)
   1409     8        4.0000   381        5.0000        4.0000    49240   20.00%
   1470     7        cutoff              5.0000        4.0000    56412   20.00%
   1496    11        4.0000   294        5.0000        4.0000    60254   20.00%
   1536    11        4.0000   302        5.0000        4.0000    63483   20.00%
   1566    11        4.0000   296        5.0000        4.0000    68491   20.00%
   1592    13        4.0000   128        5.0000        4.0000    72939   20.00%
   1621    12        4.0000   126        5.0000        4.0000    76823   20.00%
   1649     8        4.0000   104        5.0000        4.0000    81113   20.00%
   1678     9        4.0000    74        5.0000        4.0000    85406   20.00%
   1701    12        4.0000   120        5.0000        4.0000    89235   20.00%
Elapsed time = 32.62 sec. (43709.26 ticks, tree = 0.04 MB, solutions = 7)
   1726    13        4.0000   162        5.0000        4.0000    93525   20.00%
   1757    16        4.0000    68        5.0000        4.0000    98801   20.00%
   1787    13        4.0000   105        5.0000        4.0000   103459   20.00%
   1814    12        4.0000    86        5.0000        4.0000   109094   20.00%
   1846     4    infeasible              5.0000        4.0000   115656   20.00%
   1878     6        4.0000   289        5.0000        4.0000   122573   20.00%
   1927     7        4.0000   148        5.0000        4.0000   129681   20.00%
   1974     4    infeasible              5.0000        4.0000   137169   20.00%
   2031     7        4.0000   188        5.0000        4.0000   144183   20.00%
   2071     7        4.0000   146        5.0000        4.0000   152046   20.00%
Elapsed time = 40.11 sec. (53570.87 ticks, tree = 0.02 MB, solutions = 7)
   2103     9    infeasible              5.0000        4.0000   160138   20.00%
   2142     6        4.0000   136        5.0000        4.0000   167215   20.00%
   2181     9        4.0000   102        5.0000        4.0000   173710   20.00%
   2209     7        4.0000   141        5.0000        4.0000   180550   20.00%
   2236     8        4.0000    81        5.0000        4.0000   184547   20.00%

GUB cover cuts applied:  7
Clique cuts applied:  1024
Cover cuts applied:  7
Implied bound cuts applied:  48
Mixed integer rounding cuts applied:  11
Zero-half cuts applied:  44
Gomory fractional cuts applied:  13

Root node processing (before b&c):
  Real time             =    8.60 sec. (10173.75 ticks)
Sequential b&c:
  Real time             =   35.56 sec. (48730.81 ticks)
                          ------------
Total (root+branch&cut) =   44.17 sec. (58904.55 ticks)
   | W
 L | 0  1  2 3  4  5 6 
----------------------
 0 | 8  8  9 9  .  2 . 
 1 | 8  8  9 9  7  7 6 
 2 | .  .  . 3  7  7 6 
 3 | 4 11 11 3 10 10 5 
 4 | 4 11 11 1 10 10 5 
 5 | .  .  . .  .  . . 
 6 | .  .  . .  .  . . 
 7 | .  .  . .  .  . . 
 8 | .  .  . .  .  . . 
 9 | .  .  . .  .  . . 
10 | .  .  . .  .  . . 
11 | .  .  . .  .  . . 
12 | .  .  . .  .  . . 
13 | .  .  . .  .  . . 
14 | .  .  . .  .  . . 
15 | .  .  . .  .  . . 
16 | .  .  . .  .  . . 
17 | .  .  . .  .  . . 
18 | .  .  . .  .  . . 
19 | .  .  . .  .  . . 

Boxes' corners:       (w,l)
    Box  1 is at 
        top left     (3,4)
        bottom right (3,4)

    Box  2 is at 
        top left     (5,0)
        bottom right (5,0)

    Box  3 is at 
        top left     (3,2)
        bottom right (3,3)

    Box  4 is at 
        top left     (0,3)
        bottom right (0,4)

    Box  5 is at 
        top left     (6,3)
        bottom right (6,4)

    Box  6 is at 
        top left     (6,1)
        bottom right (6,2)

    Box  7 is at 
        top left     (4,1)
        bottom right (5,2)

    Box  8 is at 
        top left     (0,0)
        bottom right (1,1)

    Box  9 is at 
        top left     (2,0)
        bottom right (3,1)

    Box 10 is at 
        top left     (4,3)
        bottom right (5,4)

    Box 11 is at 
        top left     (1,3)
        bottom right (2,4)

    Roll length used: 5
In 44.17 seconds
